n_res = 4;
rc = [ 33, 52, 35, 59 ];
n_tasks = 30;
d = [ 2, 9, 3, 7, 2, 9, 8, 10, 5, 7, 4, 2, 2, 8, 10, 4, 7, 2, 7, 4, 3, 4, 6, 1, 4, 3, 7, 1, 5, 2 ];
rr = [| 8, 1, 4, 10, 10, 5, 4, 3, 3, 4, 4, 4, 4, 2, 7, 3, 6, 4, 2, 6, 10, 10, 2, 2, 1, 3, 6, 3, 9, 3
      | 1, 9, 7, 8, 10, 4, 9, 1, 7, 2, 6, 10, 5, 6, 1, 8, 6, 9, 5, 8, 9, 10, 1, 1, 6, 10, 4, 5, 4, 5
      | 2, 1, 1, 7, 9, 5, 4, 2, 8, 2, 4, 10, 1, 4, 2, 8, 7, 3, 2, 4, 3, 3, 9, 4, 4, 5, 3, 4, 7, 2
      | 4, 3, 9, 10, 2, 5, 3, 10, 9, 4, 7, 7, 8, 8, 6, 9, 8, 9, 3, 6, 10, 9, 8, 2, 3, 7, 8, 9, 1, 10 |];
suc = [ { 2 }, 
        { 3 }, 
        { 4 }, 
        { 5 }, 
        { 6 }, 
        { 7 }, 
        { 8 }, 
        { 9 }, 
        { 10 }, 
        { 11 }, 
        { 12 }, 
        { 13 }, 
        { 14 }, 
        { 15 }, 
        { 16 }, 
        { 17 }, 
        { 18 }, 
        { 19 }, 
        { 20 }, 
        { 21 }, 
        { 22 }, 
        { 23 }, 
        { 24 }, 
        { 25 }, 
        { 26 }, 
        { 27 }, 
        { 28 }, 
        { 29 }, 
        { 30 }, 
        {  }]; 
